<number of tasks>
20

<cycle time>
1000

<order strength>
0,268


<task times>
1 628
2 422
3 458
4 412
5 749
6 539
7 527
8 356
9 207
10 457
11 522
12 457
13 572
14 120
15 419
16 496
17 325
18 416
19 570
20 427

<precedence relations>
1,15
2,8
3,7
7,9
7,10
7,11
7,12
7,13
7,14
9,15
10,15
11,15
13,16
15,17
15,18
15,19
15,20

<end>
